Ti2
1.0
2.545386 1.469579 0.000000
-2.545386 1.469579 0.000000
0.000000 0.000000 4.641171
Ti
2
direct
0.333333 0.666667 0.250000 Ti
0.666667 0.333333 0.750000 Ti
