Si2
1.0
0.000000 3.535534 0.000000
-1.767767 1.767767 2.500000
1.767767 1.767767 2.500000
Si
2
direct
0.000000 0.000000 0.000000 Si
0.250000 0.250000 0.250000 Si
