Ti2
1.0
1.469580 -2.545386 0.000000
1.469579 2.545386 0.000000
0.000000 0.000000 4.641171
Ti
2
direct
0.333333 0.666667 0.250000 Ti
0.666667 0.333333 0.750000 Ti
