Sc3N
3
1.0000         0.0000         0.0000
0.0000         1.0000         0.0000
0.0000         0.0000         1.0000
Sc N
3   1
Direct
     0.5000000         0.0000000         0.0000000
     0.0000000         0.5000000         0.0000000
     0.0000000         0.0000000         0.5000000
     0.0000000         0.0000000         0.0000000
