Zn2 S2
1.0
        3.8510649204         0.0000000000         0.0000000000
       -1.9255324602         3.3351200527         0.0000000000
        0.0000000000         0.0000000000         6.3123469353
   Zn    S
    2    2
Direct
     0.000000000         0.000000000         0.000000000
     0.333333343         0.666666687         0.500000000
     0.000000000         0.000000000         0.374704003
     0.333333343         0.666666687         0.874704003
