M4N
4.00
1.0000         0.0000         0.0000
0.0000         1.0000         0.0000
0.0000         0.0000         1.0000
Sc N
4   1
Direct
     0.0000000         0.0000000         0.0000000
     0.5000000         0.5000000         0.0000000
     0.5000000         0.0000000         0.5000000
     0.0000000         0.5000000         0.5000000
     0.5000000         0.5000000         0.5000000
