W1 C1
1.0
2.928321 0.000000 0.000000
-1.464160 2.536000 0.000000
0.000000 0.000000 2.852907
W C
1 1
direct
0.000000 0.000000 0.000000 W
0.666667 0.333333 0.500000 C
