Ni2 As2
1.0
3.642170 0.000000 0.000000
-1.821085 3.154212 0.000000
0.000000 0.000000 5.033348
Ni As
2 2
direct
0.000000 0.000000 0.000000 Ni
0.000000 0.000000 0.500000 Ni
0.333333 0.666667 0.250000 As
0.666667 0.333333 0.750000 As
