diamond
4
     0.5000000000000000    0.5000000000000000    0.0000000000000000
     0.0000000000000000    0.5000000000000000    0.5000000000000000
     0.5000000000000000    0.0000000000000000    0.5000000000000000
Si
2
Direct
  0.1250000000000000000  0.1250000000000000000  0.1250000000000000000
  -0.125000000000000000  -0.125000000000000000  -0.125000000000000000
