Zn2 S2
1.0
3.851065 0.000000 0.000000
-1.925533 3.335121 0.000000
0.000000 0.000000 6.312347
Zn S
2 2
direct
0.333333 0.666667 0.000 Zn
0.666667 0.333333 0.500 Zn
0.333333 0.666667 0.374854 S
0.666667 0.333333 0.874854 S
