Ti4 N4
1.0
4.000000 0.000000 0.000000
0.000000 4.000000 0.000000
0.000000 0.000000 4.000000
Ti N
4 4
direct
0.000000 0.000000 0.000000 Ti
0.500000 0.500000 0.000000 Ti
0.000000 0.500000 0.500000 Ti
0.500000 0.000000 0.500000 Ti
0.500000 0.000000 0.000000 N
0.000000 0.500000 0.000000 N
0.000000 0.000000 0.500000 N
0.500000 0.500000 0.500000 N
