Mn2 N2
   1.00000000000000
     3.0003073363425834    0.0000000000000000    0.0000000000000000
    -1.5001536681712917    2.5983422238804206    0.0000000000000000
     0.0000000000000000    0.0000000000000000    5.1401928957723761
   Mn   N
     2     2
Selective dynamics
Direct
  0.0000000000000000  0.0000000000000000  0.0000000000000000
  0.0000000000000000  0.0000000000000000  0.5000000000000000
  0.3333330000000032  0.6666669999999968  0.2500000000000000
  0.6666669999999968  0.3333330000000032  0.7500000000000000

  0.00000000E+00  0.00000000E+00  0.00000000E+00
  0.00000000E+00  0.00000000E+00  0.00000000E+00
  0.00000000E+00  0.00000000E+00  0.00000000E+00
  0.00000000E+00  0.00000000E+00  0.00000000E+00
